PROBLEM NAME: eil51_n8
KNAPSACK DATA TYPE: uncorrelated
DIMENSION: 8
NUMBER OF ITEMS: 70
CAPACITY OF KNAPSACK: 17274
MIN SPEED: 0.1
MAX SPEED: 1
RENTING RATIO: 40.43
EDGE_WEIGHT_TYPE: CEIL_2D
NODE_COORD_SECTION	(INDEX, X, Y):
1	52	64
2	57	58
3	16	57
4	27	68
5	58	48
6	10	17
7	39	10
8	48	28
ITEMS SECTION	(INDEX, PROFIT, WEIGHT, ASSIGNED NODE NUMBER):
1	979	192	4
2	965	77	4
3	928	539	4
4	921	694	4
5	915	880	4
6	861	131	4
7	848	454	4
8	814	834	4
9	813	354	4
10	792	68	4
11	790	280	3
12	789	762	3
13	787	714	3
14	786	810	3
15	773	586	3
16	753	519	3
17	752	4	3
18	748	144	3
19	714	698	3
20	710	872	3
21	682	337	6
22	652	486	6
23	647	883	6
24	623	691	6
25	605	134	6
26	585	101	6
27	575	685	6
28	568	646	6
29	560	764	6
30	559	50	6
31	545	431	7
32	542	387	7
33	537	24	7
34	526	794	7
35	516	425	7
36	488	354	7
37	477	851	7
38	425	290	7
39	393	17	7
40	386	893	7
41	376	758	8
42	374	13	8
43	373	110	8
44	364	139	8
45	363	546	8
46	363	773	8
47	355	415	8
48	353	938	8
49	320	374	8
50	314	313	8
51	313	593	5
52	300	421	5
53	292	800	5
54	264	58	5
55	245	675	5
56	242	954	5
57	234	355	5
58	229	211	5
59	225	696	5
60	217	532	5
61	180	81	2
62	155	432	2
63	112	139	2
64	111	936	2
65	106	29	2
66	83	194	2
67	70	246	2
68	50	498	2
69	49	227	2
70	26	359	2
